$ clingo heu.lp --heu=domain
clingo version 5.4.0
Reading from heu.lp
Solving...
Answer: 1
b
SATISFIABLE

Models       : 1+
Calls        : 1
Time         : 0.001s (Solving: 0.00s 1st Model: 0.00s Unsat: 0.00s)
CPU Time     : 0.001s
